
Gurobi 11.0.1 (win64) logging started Thu May 16 19:01:52 2024

Set parameter LogFile to value "output/solver_log30.txt"
Gurobi Optimizer version 11.0.1 build v11.0.1rc0 (win64 - Windows 11.0 (22631.2))

CPU model: 11th Gen Intel(R) Core(TM) i7-1165G7 @ 2.80GHz, instruction set [SSE2|AVX|AVX2|AVX512]
Thread count: 4 physical cores, 8 logical processors, using up to 8 threads

Optimize a model with 6107 rows, 1600 columns and 117826 nonzeros
Model fingerprint: 0xe30d9417
Variable types: 568 continuous, 1032 integer (1032 binary)
Coefficient statistics:
  Matrix range     [4e-01, 1e+05]
  Objective range  [1e+00, 1e+02]
  Bounds range     [1e+00, 1e+00]
  RHS range        [1e-02, 1e+05]

User MIP start produced solution with objective 40359.4 (0.01s)
User MIP start produced solution with objective 40359.4 (0.01s)
Loaded user MIP start with objective 40359.4

Presolve removed 1191 rows and 577 columns
Presolve time: 0.13s
Presolved: 4916 rows, 1023 columns, 95305 nonzeros
Variable types: 531 continuous, 492 integer (485 binary)

Root relaxation: objective 5.566795e+04, 1747 iterations, 0.09 seconds (0.19 work units)

    Nodes    |    Current Node    |     Objective Bounds      |     Work
 Expl Unexpl |  Obj  Depth IntInf | Incumbent    BestBd   Gap | It/Node Time

     0     0 55667.9469    0   75 40359.4002 55667.9469  37.9%     -    0s
     0     0 54664.5572    0   90 40359.4002 54664.5572  35.4%     -    0s
     0     0 54584.5664    0   86 40359.4002 54584.5664  35.2%     -    0s
     0     0 54584.5664    0   86 40359.4002 54584.5664  35.2%     -    0s
     0     0 54487.0113    0  107 40359.4002 54487.0113  35.0%     -    1s
     0     0 54470.1559    0  126 40359.4002 54470.1559  35.0%     -    1s
     0     0 54457.7245    0  113 40359.4002 54457.7245  34.9%     -    1s
     0     0 54456.3039    0  122 40359.4002 54456.3039  34.9%     -    1s
     0     0 54456.3039    0  122 40359.4002 54456.3039  34.9%     -    1s
     0     0 54316.6965    0  109 40359.4002 54316.6965  34.6%     -    2s
     0     0 54241.6032    0  117 40359.4002 54241.6032  34.4%     -    2s
     0     0 54231.0085    0  121 40359.4002 54231.0085  34.4%     -    2s
     0     0 54228.0782    0  124 40359.4002 54228.0782  34.4%     -    2s
     0     0 54227.8564    0  122 40359.4002 54227.8564  34.4%     -    2s
     0     0 54226.7750    0  124 40359.4002 54226.7750  34.4%     -    2s
     0     0 54226.6751    0  119 40359.4002 54226.6751  34.4%     -    2s
     0     0 53974.9695    0  109 40359.4002 53974.9695  33.7%     -    3s
     0     0 53890.7610    0   99 40359.4002 53890.7610  33.5%     -    3s
     0     0 53890.7610    0  106 40359.4002 53890.7610  33.5%     -    3s
     0     0 53890.7304    0  121 40359.4002 53890.7304  33.5%     -    3s
     0     0 53881.8768    0  120 40359.4002 53881.8768  33.5%     -    3s
     0     0 53764.7079    0  125 40359.4002 53764.7079  33.2%     -    3s
     0     0 53764.7079    0  117 40359.4002 53764.7079  33.2%     -    3s
     0     0 53764.7079    0  123 40359.4002 53764.7079  33.2%     -    4s
     0     0 53764.7079    0  136 40359.4002 53764.7079  33.2%     -    4s
     0     0 53764.7079    0  132 40359.4002 53764.7079  33.2%     -    4s
     0     0 53764.7079    0  131 40359.4002 53764.7079  33.2%     -    4s
     0     0 53764.7079    0  126 40359.4002 53764.7079  33.2%     -    5s
     0     0 53764.7079    0  125 40359.4002 53764.7079  33.2%     -    5s
     0     0 53764.7079    0  130 40359.4002 53764.7079  33.2%     -    5s
     0     0 53706.6801    0  146 40359.4002 53706.6801  33.1%     -    5s
     0     0 53703.3472    0  141 40359.4002 53703.3472  33.1%     -    5s
     0     0 53683.9162    0  134 40359.4002 53683.9162  33.0%     -    5s
     0     0 53675.9299    0  136 40359.4002 53675.9299  33.0%     -    6s
     0     0 53675.5874    0  128 40359.4002 53675.5874  33.0%     -    6s
     0     0 53675.4173    0  129 40359.4002 53675.4173  33.0%     -    6s
     0     0 53604.1233    0  127 40359.4002 53604.1233  32.8%     -    6s
     0     0 53603.8250    0  132 40359.4002 53603.8250  32.8%     -    6s
     0     0 53603.3903    0  131 40359.4002 53603.3903  32.8%     -    6s
     0     0 53603.3408    0  136 40359.4002 53603.3408  32.8%     -    7s
     0     0 53602.9811    0  145 40359.4002 53602.9811  32.8%     -    7s
     0     0 53602.9715    0  145 40359.4002 53602.9715  32.8%     -    7s
     0     2 53602.9715    0  145 40359.4002 53602.9715  32.8%     -    7s
    35    40 48743.5352    8   88 40359.4002 51588.5824  27.8%  1212   10s
   146   123 50665.0541    5   90 40359.4002 51404.3498  27.4%   957   15s
   243   171 46287.1334    6   96 40359.4002 50979.0168  26.3%  1026   20s
   315   202 46470.9487    9   85 40359.4002 50743.9335  25.7%  1087   25s
   436   293     cutoff   14      40359.4002 50743.9335  25.7%  1093   31s
   559   327 40456.4445   14   62 40359.4002 49944.2165  23.7%  1078   35s
   707   355     cutoff   13      40359.4002 48742.9103  20.8%  1061   49s
   717   363 43339.7603    8   84 40359.4002 48592.6645  20.4%  1064   50s
   891   427 43389.4563    9   76 40359.4002 48247.8856  19.5%  1043   55s
  1033   486 40586.8729   13   68 40359.4002 48182.9525  19.4%  1033   60s

Cutting planes:
  Gomory: 2
  Implied bound: 18
  MIR: 175
  RLT: 13
  BQP: 4

Explored 1095 nodes (1150793 simplex iterations) in 60.02 seconds (128.16 work units)
Thread count was 8 (of 8 available processors)

Solution count 2: 40359.4 40359.4 

Time limit reached
Best objective 4.035940023896e+04, best bound 4.809060352086e+04, gap 19.1559%
